\ENCODING=ISO-8859-1
\Problem name: ilog.cplex

Minimize
 obj: 31.07 x0 + 42.87 x1 + 33.33 x2 + 32.05 x3 + 39.77 x4 + 32.85 x5
      + 45.75 x6 + 44.19 x7 + 42.11 x8 + 49.58 x9 + 199.86 x10 + 23.46 x11
      + 18.75 x12 + 1.3 x13 + 9.59 x14 + 12.08 x15 + 140.53 x16 + 20.55 x17
      + 17.04 x18 + 1.49 x19 + 2.4 x20 + 0.71 x21 + 135.09 x22 + 33.68 x23
      + 19.49 x24 + 0.5 x25 + 14.72 x26 + 5.43 x27 + 187.88 x28 + 20.83 x29
      + 13.79 x30 + 0.29 x31 + 11.84 x32 + 19.51 x33 + 101.14 x34 + 21.88 x35
      + 8.91 x36 + 5.91 x37 + 3.73 x38 + 12.64 x39 + 138.79 x40 + 29.19 x41
      + 13.04 x42 + 0.78 x43 + 14.6 x44 + 14.74 x45 + 136.29 x46 + 21.67 x47
      + 5.47 x48 + 15.62 x49 + 10.93 x50 + 13 x51 + 19.35 x52 + 152.52 x53
      + 20.89 x54 + 1.51 x55 + 15.79 x56 + 12.55 x57 + 6.24 x58 + 156.1 x59
      + 37.44 x60 + 13.6 x61 + 8.08 x62 + 13.34 x63 + 14.73 x64 + 182.45 x65
      + 22.02 x66 + 18.42 x67 + 15.01 x68 + 6.99 x69 + 5 x70 + 6.36 x71
      + 3.79 y0 + 6.16 y1 + 10.17 y2 + 18.26 y3 + 32.4 y4 + 148.95 y5
      + 12.48 y6 + 13.56 y7 + 14.67 y8 + 18.13 y9 + 18.98 y10 + 37.3 y11
      + 180.13 y12 + 4.47 y13 + 8.42 y14 + 9.86 y15 + 11.6 y16 + 17.65 y17
      + 21.64 y18 + 162.78 y19 + 1.56 y20 + 2.69 y21 + 5.36 y22 + 13.59 y23
      + 24.64 y24 + 118.61 y25 + 0.64 y26 + 1.33 y27 + 3.01 y28 + 10.71 y29
      + 27.72 y30 + 160.69 y31 + 6.06 y32 + 10.28 y33 + 13.33 y34 + 19.72 y35
      + 38.95 y36 + 173.8 y37 + 2.29 y38 + 3.26 y39 + 11.12 y40 + 13.12 y41
      + 13.62 y42 + 23.15 y43 + 123.72 y44 + 3.74 y45 + 7.02 y46 + 11.84 y47
      + 19.93 y48 + 29.43 y49 + 129.98 y50 + 2.53 y51 + 11.45 y52 + 16.66 y53
      + 16.92 y54 + 32.75 y55 + 115.91 y56 + 2.52 y57 + 4.22 y58 + 13.42 y59
      + 14.71 y60 + 18.4 y61 + 26.63 y62 + 188.12 y63
Subject To
 N12:     x10 + x11 + x12 + x13 + x14 + x15  = 22
 N13:     x16 + x17 + x18 + x19 + x20 + x21  = 11
 N14:     x22 + x23 + x24 + x25 + x26 + x27  = 18
 N15:     x28 + x29 + x30 + x31 + x32 + x33  = 15
 N16:     x34 + x35 + x36 + x37 + x38 + x39  = 17
 N17:     x40 + x41 + x42 + x43 + x44 + x45  = 9
 N18:     x46 + x47 + x48 + x49 + x50 + x51 + x52  = 26
 N19:     x53 + x54 + x55 + x56 + x57 + x58  = 27
 N20:     x59 + x60 + x61 + x62 + x63 + x64  = 15
 N21:     x65 + x66 + x67 + x68 + x69 + x70 + x71  = 27
 N23:     x0 + x11 + x38 + x42 + x43 + x55 + x64 - y0 - y1 - y2 - y3 - y4 - y5
           = 0
 N24:     x1 + x17 + x26 + x44 + x45 + x49 + x67 - y6 - y7 - y8 - y9 - y10
          - y11 - y12  = 0
 N25:     x2 + x20 + x23 + x31 + x71 - y13 - y14 - y15 - y16 - y17 - y18 - y19
           = 0
 N26:     x3 + x13 + x15 + x18 + x29 + x36 + x37 + x39 - y20 - y21 - y22 - y23
          - y24 - y25  = 0
 N27:     x4 + x12 + x21 + x27 + x35 + x50 + x58 + x61 + x69 - y26 - y27 - y28
          - y29 - y30 - y31  = 0
 N28:     x5 + x24 + x41 + x52 + x56 + x62 + x63 + x70 - y32 - y33 - y34 - y35
          - y36 - y37  = 0
 N29:     x6 + x32 + x33 + x47 + x57 + x68 - y38 - y39 - y40 - y41 - y42 - y43
          - y44  = 0
 N30:     x7 + x30 + x54 - y45 - y46 - y47 - y48 - y49 - y50  = 0
 N31:     x8 + x19 + x51 + x60 - y51 - y52 - y53 - y54 - y55 - y56  = 0
 N32:     x9 + x14 + x25 + x48 + x66 - y57 - y58 - y59 - y60 - y61 - y62 - y63
           = 0
 Y1_1_0:  y0 <= 8
 Y1_1_1:  y1 <= 9
 Y1_1_2:  y2 <= 8
 Y1_1_3:  y3 <= 6
 Y1_1_4:  y4 <= 7
 Y1_1_5:  y5 <= 1000
 Y1_2_0:  y6 <= 7
 Y1_2_1:  y7 <= 6
 Y1_2_2:  y8 <= 5
 Y1_2_3:  y9 <= 9
 Y1_2_4:  y10 <= 6
 Y1_2_5:  y11 <= 9
 Y1_2_6:  y12 <= 1000
 Y1_3_0:  y13 <= 8
 Y1_3_1:  y14 <= 9
 Y1_3_2:  y15 <= 9
 Y1_3_3:  y16 <= 7
 Y1_3_4:  y17 <= 9
 Y1_3_5:  y18 <= 7
 Y1_3_6:  y19 <= 1000
 Y1_4_0:  y20 <= 9
 Y1_4_1:  y21 <= 9
 Y1_4_2:  y22 <= 5
 Y1_4_3:  y23 <= 9
 Y1_4_4:  y24 <= 5
 Y1_4_5:  y25 <= 1000
 Y1_5_0:  y26 <= 8
 Y1_5_1:  y27 <= 8
 Y1_5_2:  y28 <= 9
 Y1_5_3:  y29 <= 7
 Y1_5_4:  y30 <= 5
 Y1_5_5:  y31 <= 1000
 Y1_6_0:  y32 <= 5
 Y1_6_1:  y33 <= 6
 Y1_6_2:  y34 <= 5
 Y1_6_3:  y35 <= 5
 Y1_6_4:  y36 <= 6
 Y1_6_5:  y37 <= 1000
 Y1_7_0:  y38 <= 6
 Y1_7_1:  y39 <= 5
 Y1_7_2:  y40 <= 5
 Y1_7_3:  y41 <= 6
 Y1_7_4:  y42 <= 9
 Y1_7_5:  y43 <= 7
 Y1_7_6:  y44 <= 1000
 Y1_8_0:  y45 <= 8
 Y1_8_1:  y46 <= 7
 Y1_8_2:  y47 <= 6
 Y1_8_3:  y48 <= 6
 Y1_8_4:  y49 <= 5
 Y1_8_5:  y50 <= 1000
 Y1_9_0:  y51 <= 9
 Y1_9_1:  y52 <= 5
 Y1_9_2:  y53 <= 8
 Y1_9_3:  y54 <= 7
 Y1_9_4:  y55 <= 5
 Y1_9_5:  y56 <= 1000
 Y1_10_0: y57 <= 6
 Y1_10_1: y58 <= 9
 Y1_10_2: y59 <= 6
 Y1_10_3: y60 <= 9
 Y1_10_4: y61 <= 9
 Y1_10_5: y62 <= 8
 Y1_10_6: y63 <= 1000
Bounds
 0 <= x0 <= 1000
 0 <= x1 <= 1000
 0 <= x2 <= 1000
 0 <= x3 <= 1000
 0 <= x4 <= 1000
 0 <= x5 <= 1000
 0 <= x6 <= 1000
 0 <= x7 <= 1000
 0 <= x8 <= 1000
 0 <= x9 <= 1000
 0 <= x10 <= 1000
 0 <= x11 <= 8
 0 <= x12 <= 8
 0 <= x13 <= 7
 0 <= x14 <= 7
 0 <= x15 <= 8
 0 <= x16 <= 1000
 0 <= x17 <= 5
 0 <= x18 <= 7
 0 <= x19 <= 6
 0 <= x20 <= 5
 0 <= x21 <= 8
 0 <= x22 <= 1000
 0 <= x23 <= 5
 0 <= x24 <= 9
 0 <= x25 <= 7
 0 <= x26 <= 9
 0 <= x27 <= 8
 0 <= x28 <= 1000
 0 <= x29 <= 9
 0 <= x30 <= 6
 0 <= x31 <= 7
 0 <= x32 <= 8
 0 <= x33 <= 5
 0 <= x34 <= 1000
 0 <= x35 <= 9
 0 <= x36 <= 5
 0 <= x37 <= 6
 0 <= x38 <= 7
 0 <= x39 <= 9
 0 <= x40 <= 1000
 0 <= x41 <= 7
 0 <= x42 <= 7
 0 <= x43 <= 9
 0 <= x44 <= 5
 0 <= x45 <= 5
 0 <= x46 <= 1000
 0 <= x47 <= 5
 0 <= x48 <= 6
 0 <= x49 <= 7
 0 <= x50 <= 6
 0 <= x51 <= 9
 0 <= x52 <= 9
 0 <= x53 <= 1000
 0 <= x54 <= 9
 0 <= x55 <= 9
 0 <= x56 <= 5
 0 <= x57 <= 5
 0 <= x58 <= 7
 0 <= x59 <= 1000
 0 <= x60 <= 5
 0 <= x61 <= 8
 0 <= x62 <= 5
 0 <= x63 <= 9
 0 <= x64 <= 8
 0 <= x65 <= 1000
 0 <= x66 <= 9
 0 <= x67 <= 8
 0 <= x68 <= 7
 0 <= x69 <= 8
 0 <= x70 <= 8
 0 <= x71 <= 7
 0 <= y0 <= 1001
 0 <= y1 <= 1001
 0 <= y2 <= 1001
 0 <= y3 <= 1001
 0 <= y4 <= 1001
 0 <= y5 <= 1001
 0 <= y6 <= 1001
 0 <= y7 <= 1001
 0 <= y8 <= 1001
 0 <= y9 <= 1001
 0 <= y10 <= 1001
 0 <= y11 <= 1001
 0 <= y12 <= 1001
 0 <= y13 <= 1001
 0 <= y14 <= 1001
 0 <= y15 <= 1001
 0 <= y16 <= 1001
 0 <= y17 <= 1001
 0 <= y18 <= 1001
 0 <= y19 <= 1001
 0 <= y20 <= 1001
 0 <= y21 <= 1001
 0 <= y22 <= 1001
 0 <= y23 <= 1001
 0 <= y24 <= 1001
 0 <= y25 <= 1001
 0 <= y26 <= 1001
 0 <= y27 <= 1001
 0 <= y28 <= 1001
 0 <= y29 <= 1001
 0 <= y30 <= 1001
 0 <= y31 <= 1001
 0 <= y32 <= 1001
 0 <= y33 <= 1001
 0 <= y34 <= 1001
 0 <= y35 <= 1001
 0 <= y36 <= 1001
 0 <= y37 <= 1001
 0 <= y38 <= 1001
 0 <= y39 <= 1001
 0 <= y40 <= 1001
 0 <= y41 <= 1001
 0 <= y42 <= 1001
 0 <= y43 <= 1001
 0 <= y44 <= 1001
 0 <= y45 <= 1001
 0 <= y46 <= 1001
 0 <= y47 <= 1001
 0 <= y48 <= 1001
 0 <= y49 <= 1001
 0 <= y50 <= 1001
 0 <= y51 <= 1001
 0 <= y52 <= 1001
 0 <= y53 <= 1001
 0 <= y54 <= 1001
 0 <= y55 <= 1001
 0 <= y56 <= 1001
 0 <= y57 <= 1001
 0 <= y58 <= 1001
 0 <= y59 <= 1001
 0 <= y60 <= 1001
 0 <= y61 <= 1001
 0 <= y62 <= 1001
 0 <= y63 <= 1001
End
